(declare-fun bvlambda_66_ ()Bool         )
(declare-fun a161 () (Array (_ BitVec 1) (_ BitVec 6)))
(assert
(let (($e10 (_ bv0 6)))
(let (($e207 (store a161 true         $e10 )))
(
                 extract(select $e207(not bvlambda_66_))
                                                                                                                                                                                                                                                                                                                                                                                                                                                                                                                                                                                                                                                                                                                                                                                                                                                                                                                                                                                                                                                                                                                                                                                                                                                                                                                                                                                                                                                                                                                                                                                                                                                                                                                                                                                                                                                                                                                                                                                                                                                                                                                                                                                                                                                                                                                                                                                                                                                                       ) )                                                                                                                   )         )
